
-9.1
-9.0
-8.9
-8.8
-8.7
-8.5
-8.4
-8.2
-8.1
-8.1
-8.1
-8.1
-7.8
-7.7
-7.7
-7.7
-7.5
-7.4
-7.4
-7.4
-9.6
-9.4
-8.8
-8.8
-8.8
-8.8
-8.5
-8.4
-8.4
-8.4
-8.4
-8.3
-8.3
-8.3
-8.3
-8.2
-8.2
-8.1
-8.1
-8.1
-8.1
-8.1
-8.1
-8.1
-8.1
-8.1
-8.1
-8.1
-8.1
-8.1
-8.0
-8.0
-8.0
-7.8
-7.8
-7.8
-7.8
-7.8